%%
% Autogenerated by /opt/prj/battleships-ai/src/server/solver.py, instance 4 10x10 [0] #16 <e1zo3s5l5a6q>
% Source: https://www.puzzle-battleships.com/?size=4
%%

size = 10;
hints_num = 5;
hints = [| 1, 6 | 5, 8 | 7, 8 | 9, 1 | 9, 3 |];
ships_num = 10;

constr_rows = [3, 2, 3, 1, 1, 4, 1, 1, 3, 1];
constr_cols = [2, 3, 1, 6, 1, 1, 2, 3, 0, 1];

given_ships = [|
<>, <>, <>, <>, 1, |
<>, <>, <>, <>, 1, |
<>, <>, <>, <>, 1, |
<>, <>, <>, <>, 1, |
<>, <>, <>, <>, 2, |
<>, <>, <>, <>, 2, |
<>, <>, <>, <>, 2, |
<>, <>, <>, <>, 3, |
<>, <>, <>, <>, 3, |
<>, <>, <>, <>, 4  |];

